(set-info :source  loris-7.ddns.comp.nus.edu.sg/~project/hip/) 
;Variables declarations
(declare-fun m () Int)
(declare-fun height_5412 () Int)
(declare-fun n () Int)
(declare-fun v_bool_226_2439_primed () Int)
(declare-fun tmp_null_primed () Int)
(declare-fun a_primed () Int)
(declare-fun a () Int)
(declare-fun x () Int)
(declare-fun x_primed () Int)
(declare-fun height1_5416 () Int)
(declare-fun size1_5415 () Int)
(declare-fun p_5414 () Int)
(declare-fun height2_5419 () Int)
(declare-fun size2_5418 () Int)
(declare-fun q_5417 () Int)
;Relations declarations
;Axioms assertions
;Antecedent
(assert (= m (+ (+ size2_5418 1) size1_5415)))
(assert (<= height2_5419 (+ 1 height1_5416)))
(assert (<= height1_5416 (+ 1 height2_5419)))
(assert (exists ((max_33 Int)) (and (= n (+ 1 max_33)) (or (and (= max_33 height1_5416) (>= height1_5416 height2_5419)) (and (= max_33 height2_5419) (< height1_5416 height2_5419))))))
(assert (= height_5412 n))
(assert (not (> v_bool_226_2439_primed 0)))
(assert (> x_primed 0))
(assert (< tmp_null_primed 1))
(assert (= a_primed a))
(assert (= x_primed x))
(assert (= x_primed 1))
(assert (or (and (and (< p_5414 1) (= size1_5415 0)) (= height1_5416 0)) (and (and (<= 1 height1_5416) (<= 1 size1_5415)) (> p_5414 0))))
(assert (or (and (and (< q_5417 1) (= size2_5418 0)) (= height2_5419 0)) (and (and (<= 1 height2_5419) (<= 1 size2_5418)) (> q_5417 0))))
;Negation of Consequence
(assert (not false))
(check-sat)